21349.42 0
0 36 58 56 4 32 83 78 95 92 52 63 20 90 49 97 79 88 45 27 1 54 86 82 25 62 44 31 34 17 22 99 93 51 3 89 13 18 30 74 10 7 16 77 42 96 50 12 55 98 39 68 24 41 57 91 38 80 29 5 46 53 14 75 15 19 71 43 65 37 2 28 67 73 87 48 85 33 59 21 70 23 8 66 64 60 81 94 40 47 72 26 9 11 84 35 76 61 69 6